TCS_Benchmarks/redos_fix/corpus2_output_distinct_3036_3035_8_0.txt
(.*)([0-9.]+)
(.*)(" \(\d+ docs, )([0-9.]+)